
  22   10
  10   10   10   10   10   10   10   10   10   10

   0   0   0   0   0   0   0   0   0   0   0   3 2 3 4 
   9  10  10  10  10  10  10  10  10  10  10   5 10 8 7 6 5 
   1  10  10  10  10  10  10  10  10  10  10   5 11 10 8 7 6 
   8  10  10  10  10  10  10  10  10  10  10   3 11 7 6 
   1  10  10  10  10  10  10  10  10  10  10   3 17 12 11 
   8  10  10  10  10  10  10  10  10  10  10   2 12 9 
   7  10  10  10  10  10  10  10  10  10  10   3 17 16 13 
   1  10  10  10  10  10  10  10  10  10  10   5 21 17 16 15 14 
  10  10  10  10  10  10  10  10  10  10  10   2 17 13 
   5  10  10  10  10  10  10  10  10  10  10   2 16 13 
  10  10  10  10  10  10  10  10  10  10  10   1 13 
   3  10  10  10  10  10  10  10  10  10  10   5 21 20 19 16 14 
   4  10  10  10  10  10  10  10  10  10  10   4 21 19 15 14 
   9  10  10  10  10  10  10  10  10  10  10   1 18 
   3  10  10  10  10  10  10  10  10  10  10   1 20 
   2  10  10  10  10  10  10  10  10  10  10   1 18 
   1  10  10  10  10  10  10  10  10  10  10   1 19 
   1  10  10  10  10  10  10  10  10  10  10   1 22
   2  10  10  10  10  10  10  10  10  10  10   1 22
  10  10  10  10  10  10  10  10  10  10  10   1 22
   9  10  10  10  10  10  10  10  10  10  10   1 22
   0   0   0   0   0   0   0   0   0   0   0   0 
